p edge 58
e 0 14
e 0 15
e 0 21
e 0 24
e 0 30
e 0 39
e 1 8
e 1 10
e 1 16
e 1 27
e 1 46
e 2 6
e 2 26
e 2 47
e 2 48
e 3 19
e 3 20
e 3 38
e 3 53
e 4 17
e 4 29
e 4 32
e 4 34
e 4 35
e 4 37
e 4 49
e 4 53
e 5 15
e 5 21
e 5 23
e 5 28
e 5 57
e 6 26
e 7 26
e 7 43
e 7 45
e 8 9
e 8 16
e 8 17
e 8 37
e 8 46
e 8 49
e 8 50
e 9 16
e 9 42
e 9 50
e 9 51
e 10 13
e 10 16
e 10 18
e 10 25
e 10 27
e 11 15
e 11 24
e 11 28
e 11 45
e 11 47
e 11 48
e 12 13
e 12 18
e 12 22
e 12 31
e 12 33
e 12 54
e 13 18
e 13 25
e 13 40
e 13 54
e 14 30
e 14 39
e 15 21
e 15 24
e 15 28
e 16 18
e 16 42
e 17 37
e 17 49
e 18 33
e 18 42
e 18 51
e 19 35
e 19 38
e 19 53
e 20 38
e 21 31
e 21 39
e 21 57
e 22 31
e 22 33
e 22 55
e 22 56
e 23 28
e 23 36
e 23 44
e 23 48
e 23 57
e 24 30
e 24 43
e 24 45
e 25 27
e 25 40
e 26 45
e 26 47
e 27 46
e 28 48
e 29 32
e 29 37
e 29 46
e 30 43
e 31 39
e 31 52
e 31 54
e 31 56
e 31 57
e 32 34
e 33 51
e 33 55
e 34 35
e 35 53
e 36 41
e 36 44
e 36 48
e 36 52
e 37 46
e 39 56
e 40 41
e 40 54
e 41 54
e 42 51
e 43 45
e 44 52
e 44 57
e 45 47
e 47 48
e 49 50
e 49 53
e 50 51
e 50 55
e 51 55
e 52 54
e 52 57
e 55 56
c k 52
